Traveling Salesman Problem/TSP_generados/Aleatorio1621103350_11.tsp
NAME: Aleatorio1621103350_11.tsp
COMMENT: Randomly generated scenario
TYPE: TSP
DIMENSION: 11
EDGE_WEIGHT_TYPE: ATT
NODE_COORD_SECTION
1 3.58 3.02
2 4.84 15.93
3 22.83 1.17
4 21.92 25.09
5 46.21 49.18
6 36.69 17.75
7 12.33 25.98
8 27.08 19.23
9 30.66 1.2
10 7.18 49.74
11 38.66 12.78
