Traveling Salesman Problem/TSP_generados/Aleatorio1621103350_11.opt.tour
NAME: Aleatorio1621103350_11.opt.tour
COMMENT: Optimal solution for Aleatorio1621103350_11 (187.18219705153538)
TYPE: TOUR
DIMENSION: 11
TOUR_SECTION
1 3 9 11 6 8 4 5 10 7 2
-1
EOF
